GLPSOL--GLPK LP/MIP Solver 5.0
Parameter(s) specified in the command line:
 --lp ../modeles/3_324.lp --log 3_324.log
Reading problem data from '../modeles/3_324.lp'...
985 rows, 1950 columns, 6813 non-zeros
972 integer variables, all of which are binary
2944 lines were read
GLPK Integer Optimizer 5.0
985 rows, 1950 columns, 6813 non-zeros
972 integer variables, all of which are binary
Preprocessing...
966 constraint coefficient(s) were reduced
985 rows, 1947 columns, 6810 non-zeros
972 integer variables, all of which are binary
Scaling...
 A: min|aij| =  1.524e-04  max|aij| =  4.000e+00  ratio =  2.624e+04
GM: min|aij| =  7.857e-02  max|aij| =  1.273e+01  ratio =  1.620e+02
EQ: min|aij| =  6.173e-03  max|aij| =  1.000e+00  ratio =  1.620e+02
2N: min|aij| =  4.877e-03  max|aij| =  1.763e+00  ratio =  3.615e+02
Constructing initial basis...
Size of triangular part is 985
Solving LP relaxation...
GLPK Simplex Optimizer 5.0
985 rows, 1947 columns, 6810 non-zeros
      0: obj =   6.000000000e+00 inf =   1.450e+01 (7)
     62: obj =   4.485452432e-01 inf =   0.000e+00 (0)
*   230: obj =  -1.731979291e+00 inf =   2.298e-15 (0)
OPTIMAL LP SOLUTION FOUND
Integer optimization begins...
Long-step dual simplex will be used
+   230: mip =     not found yet >=              -inf        (1; 0)
+   601: >>>>>  -1.731979291e+00 >=  -1.731979291e+00   0.0% (369; 0)
+   601: mip =  -1.731979291e+00 >=     tree is empty   0.0% (0; 737)
INTEGER OPTIMAL SOLUTION FOUND
Time used:   0.6 secs
Memory used: 2.9 Mb (3050737 bytes)
